 C  H Mn  O                             
    1.000000000000000     
    25.0000000000000000    0.0000000000000000    0.0000000000000000
     0.0000000000000000   25.0000000000000000    0.0000000000000000
     0.0000000000000000    0.0000000000000000   25.0000000000000000
   Mn   O    C    H 
    12    48    16    24
Direct
  0.5480637599999980  0.4644608600000026  0.4605487199999985   T   T   T
  0.4548115775633690  0.5392554875394779  0.4598142016027751   T   T   T
  0.4647249381326262  0.4538003809565510  0.5399423324440846   T   T   T
  0.5391131213543687  0.5473991094472481  0.5388494944023279   T   T   T
  0.6425032006281626  0.4016197503162076  0.4555305482654575   T   T   T
  0.6678060945786370  0.5327065594031595  0.4871831948145271   T   T   T
  0.3625178371628124  0.6039009914721731  0.4507628815077140   T   T   T
  0.3280973526226703  0.4726403643271198  0.4901089145388582   T   T   T
  0.4018135514898304  0.3605606941680932  0.5467924170291809   T   T   T
  0.5321003634358021  0.3345633322125892  0.5099595600012563   T   T   T
  0.6022942767096922  0.6418167688705267  0.5445500025305634   T   T   T
  0.4711458116055667  0.6673459482415254  0.5124773180197195   T   T   T
  0.5429247220399773  0.4709066451057069  0.5369527658714688   T   T   T
  0.6234253390784872  0.4754523194222884  0.4606684890681052   T   T   T
  0.5663226698471462  0.3903947312772544  0.4679658687928949   T   T   T
  0.5473635822788765  0.4597652419142051  0.3818751428849367   T   T   T
  0.6208241289674135  0.4066205114997814  0.3685995698552560   T   T   T
  0.6689167247945420  0.3996810908385342  0.5408194745095756   T   T   T
  0.6597407046868682  0.3243474972626998  0.4482383943497013   T   T   T
  0.7182654974285612  0.4163077504663804  0.4328625707482274   T   T   T
  0.7288081725795479  0.5071222292514932  0.4409921642515400   T   T   T
  0.6379023228480065  0.5790300286515873  0.4145356966442861   T   T   T
  0.4624016370883552  0.5322651145257495  0.5373927361370150   T   T   T
  0.3817356328802290  0.5309097143234141  0.4576949114769704   T   T   T
  0.4395940751666387  0.6138651528835695  0.4666832252389810   T   T   T
  0.4596591240585326  0.5432807012894898  0.3816877937351748   T   T   T
  0.3904157812306650  0.6007462922130671  0.3642671377450810   T   T   T
  0.3323650700864320  0.6090090272912505  0.5357448428448350   T   T   T
  0.3005663535185903  0.5252957699499845  0.5535056433644314   T   T   T
  0.3478863105745802  0.6827248293320594  0.4437590563307197   T   T   T
  0.2767988826843037  0.4082192365327018  0.5158243236127689   T   T   T
  0.2886495527871276  0.5930300177786947  0.4235872685425690   T   T   T
  0.2649495551056020  0.5060141898222454  0.4393731481627228   T   T   T
  0.3536636944741005  0.4246667688973389  0.4170052805177065   T   T   T
  0.4710800188279478  0.4617457090457009  0.4626134312119845   T   T   T
  0.4772604610531417  0.3793932445814079  0.5392635754654620   T   T   T
  0.3930971678661095  0.4356408561736913  0.5351434803618886   T   T   T
  0.4643600257500040  0.4548474409163248  0.6183974523902762   T   T   T
  0.4134383574132983  0.3804285518234849  0.6349723160554674   T   T   T
  0.3988592558230550  0.3363478912366347  0.4600735863020162   T   T   T
  0.4832066871960734  0.3057099221432011  0.4439865349930372   T   T   T
  0.3253162517468482  0.3432534422172751  0.5581222486142181   T   T   T
  0.5889004932927691  0.2815109928097854  0.4877251682635375   T   T   T
  0.4164053919587687  0.2836178563804381  0.5668131536381011   T   T   T
  0.5065083470353642  0.2720115553659781  0.5538811591611719   T   T   T
  0.5806252834521644  0.3575288828805085  0.5847807238822824   T   T   T
  0.5338329710170626  0.5408870668643218  0.4622707207743773   T   T   T
  0.5287701669908316  0.6224397668431223  0.5379481805362758   T   T   T
  0.6137276576705020  0.5654325665179343  0.5320179897342641   T   T   T
  0.5432366763295917  0.5466883111561032  0.6174444098501013   T   T   T
  0.6059793684580086  0.6705897881214540  0.4601839776432399   T   T   T
  0.5214911493262449  0.7030979145891223  0.4493982680269042   T   T   T
  0.7010752474108344  0.4841800909740215  0.5522748327908644   T   T   T
  0.7206629675798766  0.5907608800403139  0.5061455754187989   T   T   T
  0.5873910969415803  0.7171029072712400  0.5683564580075853   T   T   T
  0.6797919722095926  0.6585445566834238  0.5524558305917324   T   T   T
  0.5965789102614565  0.6198564775537960  0.6313515072034832   T   T   T
  0.4142896297905239  0.7209939810405501  0.4940852886009850   T   T   T
  0.4243171019900700  0.6354610817330837  0.5832881442645430   T   T   T
  0.4964539323051085  0.7270810160389800  0.5608844482909774   T   T   T
  0.5811002663945573  0.4329307803341607  0.3535236826833099   T   T   T
  0.6329728653645077  0.2838891647179835  0.4631914358081985   T   T   T
  0.7421722004063014  0.4605275214770543  0.4264114476623888   T   T   T
  0.4288374978644853  0.5718027933186463  0.3514044870190176   T   T   T
  0.3082394768963042  0.5737225772025667  0.5641548345795826   T   T   T
  0.3727461944623585  0.7212501348754969  0.4649261441128090   T   T   T
  0.4392614076372112  0.4208743957584460  0.6483548606224971   T   T   T
  0.4355122047659989  0.3157694433726874  0.4311042328247439   T   T   T
  0.2821901853055166  0.3665302163541142  0.5428931253326041   T   T   T
  0.4603189126530864  0.2587970455164523  0.5701199265661430   T   T   T
  0.5696510671356663  0.5804620466523716  0.6461447613702234   T   T   T
  0.5686477056677077  0.6945378514798364  0.4344046027616599   T   T   T
  0.6913213122977311  0.4372504096383736  0.5674591069621187   T   T   T
  0.2579635825837201  0.5518660608674040  0.4208681387892454   T   T   T
  0.7194650012273200  0.6332663815761777  0.5335371985942743   T   T   T
  0.5429309885418121  0.7404637944052084  0.5756026644100913   T   T   T
  0.5721133987155795  0.4346415641946777  0.3100468894442869   T   T   T
  0.4398766244030838  0.5685669269663904  0.3084532008213898   T   T   T
  0.2925277639601802  0.5883236772383142  0.6032317908286728   T   T   T
  0.4237319154810706  0.3054830307082383  0.3893935453031503   T   T   T
  0.2452789909839268  0.3455058488398848  0.5560730061989219   T   T   T
  0.4584038563375188  0.2192172533906245  0.5900954751940120   T   T   T
  0.5798852136736130  0.7093514365258287  0.3939369577216780   T   T   T
  0.6313947340404340  0.6165969168809582  0.4262659934113202   T   T   T
  0.6016494322478891  0.5642316754583447  0.4120862916890573   T   T   T
  0.3669881723271118  0.3892243993589730  0.4295416448473972   T   T   T
  0.3859462397138032  0.4440116244298267  0.4066363627938827   T   T   T
  0.6165512683809240  0.3702881284624837  0.5728765270216556   T   T   T
  0.5618412949692413  0.3901953590055456  0.5951040591930195   T   T   T
  0.3866995932146438  0.6315471157881163  0.5703731114724562   T   T   T
  0.4371356519665710  0.5983195062610278  0.5838128574115160   T   T   T
  0.6514019999899645  0.2447460239446357  0.4534866393651100   T   T   T
  0.7808798820275697  0.4580882297737006  0.4048933083517809   T   T   T
  0.3556759772880724  0.7614745436261359  0.4573144837496415   T   T   T
  0.4426796743418464  0.4308284320048514  0.6915535832361002   T   T   T
  0.5669046291440338  0.5717880048280719  0.6896346976356114   T   T   T
  0.7035547969013862  0.4266777055017883  0.6089475864818539   T   T   T
  0.2201522129544173  0.5597971166352949  0.3987726426090390   T   T   T
  0.7590225811544968  0.6514160570253011  0.5419956394649219   T   T   T
  0.5452165716399477  0.7786130519347978  0.5981202455501133   T   T   T
 
  0.00000000E+00  0.00000000E+00  0.00000000E+00
  0.00000000E+00  0.00000000E+00  0.00000000E+00
  0.00000000E+00  0.00000000E+00  0.00000000E+00
  0.00000000E+00  0.00000000E+00  0.00000000E+00
  0.00000000E+00  0.00000000E+00  0.00000000E+00
  0.00000000E+00  0.00000000E+00  0.00000000E+00
  0.00000000E+00  0.00000000E+00  0.00000000E+00
  0.00000000E+00  0.00000000E+00  0.00000000E+00
  0.00000000E+00  0.00000000E+00  0.00000000E+00
  0.00000000E+00  0.00000000E+00  0.00000000E+00
  0.00000000E+00  0.00000000E+00  0.00000000E+00
  0.00000000E+00  0.00000000E+00  0.00000000E+00
  0.00000000E+00  0.00000000E+00  0.00000000E+00
  0.00000000E+00  0.00000000E+00  0.00000000E+00
  0.00000000E+00  0.00000000E+00  0.00000000E+00
  0.00000000E+00  0.00000000E+00  0.00000000E+00
  0.00000000E+00  0.00000000E+00  0.00000000E+00
  0.00000000E+00  0.00000000E+00  0.00000000E+00
  0.00000000E+00  0.00000000E+00  0.00000000E+00
  0.00000000E+00  0.00000000E+00  0.00000000E+00
  0.00000000E+00  0.00000000E+00  0.00000000E+00
  0.00000000E+00  0.00000000E+00  0.00000000E+00
  0.00000000E+00  0.00000000E+00  0.00000000E+00
  0.00000000E+00  0.00000000E+00  0.00000000E+00
  0.00000000E+00  0.00000000E+00  0.00000000E+00
  0.00000000E+00  0.00000000E+00  0.00000000E+00
  0.00000000E+00  0.00000000E+00  0.00000000E+00
  0.00000000E+00  0.00000000E+00  0.00000000E+00
  0.00000000E+00  0.00000000E+00  0.00000000E+00
  0.00000000E+00  0.00000000E+00  0.00000000E+00
  0.00000000E+00  0.00000000E+00  0.00000000E+00
  0.00000000E+00  0.00000000E+00  0.00000000E+00
  0.00000000E+00  0.00000000E+00  0.00000000E+00
  0.00000000E+00  0.00000000E+00  0.00000000E+00
  0.00000000E+00  0.00000000E+00  0.00000000E+00
  0.00000000E+00  0.00000000E+00  0.00000000E+00
  0.00000000E+00  0.00000000E+00  0.00000000E+00
  0.00000000E+00  0.00000000E+00  0.00000000E+00
  0.00000000E+00  0.00000000E+00  0.00000000E+00
  0.00000000E+00  0.00000000E+00  0.00000000E+00
  0.00000000E+00  0.00000000E+00  0.00000000E+00
  0.00000000E+00  0.00000000E+00  0.00000000E+00
  0.00000000E+00  0.00000000E+00  0.00000000E+00
  0.00000000E+00  0.00000000E+00  0.00000000E+00
  0.00000000E+00  0.00000000E+00  0.00000000E+00
  0.00000000E+00  0.00000000E+00  0.00000000E+00
  0.00000000E+00  0.00000000E+00  0.00000000E+00
  0.00000000E+00  0.00000000E+00  0.00000000E+00
  0.00000000E+00  0.00000000E+00  0.00000000E+00
  0.00000000E+00  0.00000000E+00  0.00000000E+00
  0.00000000E+00  0.00000000E+00  0.00000000E+00
  0.00000000E+00  0.00000000E+00  0.00000000E+00
  0.00000000E+00  0.00000000E+00  0.00000000E+00
  0.00000000E+00  0.00000000E+00  0.00000000E+00
  0.00000000E+00  0.00000000E+00  0.00000000E+00
  0.00000000E+00  0.00000000E+00  0.00000000E+00
  0.00000000E+00  0.00000000E+00  0.00000000E+00
  0.00000000E+00  0.00000000E+00  0.00000000E+00
  0.00000000E+00  0.00000000E+00  0.00000000E+00
  0.00000000E+00  0.00000000E+00  0.00000000E+00
  0.00000000E+00  0.00000000E+00  0.00000000E+00
  0.00000000E+00  0.00000000E+00  0.00000000E+00
  0.00000000E+00  0.00000000E+00  0.00000000E+00
  0.00000000E+00  0.00000000E+00  0.00000000E+00
  0.00000000E+00  0.00000000E+00  0.00000000E+00
  0.00000000E+00  0.00000000E+00  0.00000000E+00
  0.00000000E+00  0.00000000E+00  0.00000000E+00
  0.00000000E+00  0.00000000E+00  0.00000000E+00
  0.00000000E+00  0.00000000E+00  0.00000000E+00
  0.00000000E+00  0.00000000E+00  0.00000000E+00
  0.00000000E+00  0.00000000E+00  0.00000000E+00
  0.00000000E+00  0.00000000E+00  0.00000000E+00
  0.00000000E+00  0.00000000E+00  0.00000000E+00
  0.00000000E+00  0.00000000E+00  0.00000000E+00
  0.00000000E+00  0.00000000E+00  0.00000000E+00
  0.00000000E+00  0.00000000E+00  0.00000000E+00
  0.00000000E+00  0.00000000E+00  0.00000000E+00
  0.00000000E+00  0.00000000E+00  0.00000000E+00
  0.00000000E+00  0.00000000E+00  0.00000000E+00
  0.00000000E+00  0.00000000E+00  0.00000000E+00
  0.00000000E+00  0.00000000E+00  0.00000000E+00
  0.00000000E+00  0.00000000E+00  0.00000000E+00
  0.00000000E+00  0.00000000E+00  0.00000000E+00
  0.00000000E+00  0.00000000E+00  0.00000000E+00
  0.00000000E+00  0.00000000E+00  0.00000000E+00
  0.00000000E+00  0.00000000E+00  0.00000000E+00
  0.00000000E+00  0.00000000E+00  0.00000000E+00
  0.00000000E+00  0.00000000E+00  0.00000000E+00
  0.00000000E+00  0.00000000E+00  0.00000000E+00
  0.00000000E+00  0.00000000E+00  0.00000000E+00
  0.00000000E+00  0.00000000E+00  0.00000000E+00
  0.00000000E+00  0.00000000E+00  0.00000000E+00
  0.00000000E+00  0.00000000E+00  0.00000000E+00
  0.00000000E+00  0.00000000E+00  0.00000000E+00
  0.00000000E+00  0.00000000E+00  0.00000000E+00
  0.00000000E+00  0.00000000E+00  0.00000000E+00
  0.00000000E+00  0.00000000E+00  0.00000000E+00
  0.00000000E+00  0.00000000E+00  0.00000000E+00
  0.00000000E+00  0.00000000E+00  0.00000000E+00
  0.00000000E+00  0.00000000E+00  0.00000000E+00
