 C  H Mn  O                             
   1.00000000000000     
    25.0000000000000000    0.0000000000000000    0.0000000000000000
     0.0000000000000000   25.0000000000000000    0.0000000000000000
     0.0000000000000000    0.0000000000000000   25.0000000000000000
   Mn   O    C    H 
    12    48    16    24
Direct
  0.5490305523481768  0.4600743054938418  0.4623099180900386   T   T   T
  0.4563163919809467  0.5356530883604415  0.4624535830211440   T   T   T
  0.4630170339966019  0.4517748600904914  0.5421078233041381   T   T   T
  0.5390334871705112  0.5440367864524170  0.5411478050794922   T   T   T
  0.6420513169855769  0.3968231421148830  0.4563340425239737   T   T   T
  0.6683547594187560  0.5277434025435360  0.4907785312261217   T   T   T
  0.3624107954809057  0.5994666145567484  0.4558272662666676   T   T   T
  0.3357905943411617  0.4684358329599699  0.4879028121464746   T   T   T
  0.3977499416989330  0.3599720535631007  0.5513995945755366   T   T   T
  0.5296766868913042  0.3247027297408743  0.5146359758467035   T   T   T
  0.6023007936249042  0.6382189876438800  0.5461949871799704   T   T   T
  0.4712562561724123  0.6640257313350054  0.5146134774437081   T   T   T
  0.5407712779798838  0.4670620851753230  0.5396206938772200   T   T   T
  0.6233514915051697  0.4722237468755799  0.4632329142517467   T   T   T
  0.5668561945067342  0.3884562571066393  0.4678941820029186   T   T   T
  0.5481940653102099  0.4590932622609109  0.3839070049477806   T   T   T
  0.6224764397415683  0.4077672550616870  0.3679824343848552   T   T   T
  0.6670967892312246  0.3949813240994321  0.5427508031965529   T   T   T
  0.6590036801652122  0.3200948773572965  0.4461772716686218   T   T   T
  0.7189489639189282  0.4114089447430209  0.4357404264392741   T   T   T
  0.7299138286678249  0.5020043402872565  0.4456810213928922   T   T   T
  0.6424902910527295  0.5755818374182776  0.4164995675219263   T   T   T
  0.4623971243091671  0.5307556889682333  0.5391230211377391   T   T   T
  0.3812592382524700  0.5259212994022124  0.4629863633468724   T   T   T
  0.4388402602042798  0.6104541020320199  0.4689039359850942   T   T   T
  0.4577157756550598  0.5395191941836907  0.3838982219519224   T   T   T
  0.3850510433416827  0.5933433193981824  0.3692170113370273   T   T   T
  0.3322268178425057  0.6036686242066870  0.5396528482770225   T   T   T
  0.2989190963279223  0.5194118991013633  0.5499567438160876   T   T   T
  0.3463081080990671  0.6771161532855576  0.4477152206269974   T   T   T
  0.2816324254398952  0.4118568658197979  0.5058407215265157   T   T   T
  0.2873066731325323  0.5847286866482708  0.4310984252106901   T   T   T
  0.2770582784052339  0.4937720657466838  0.4382904924739172   T   T   T
  0.3688417542481938  0.4209258173680491  0.4181855714032645   T   T   T
  0.4705397338612882  0.4587614022514771  0.4644715898568033   T   T   T
  0.4708241045644111  0.3787559184607554  0.5448535123163250   T   T   T
  0.3883495045856289  0.4370819995994803  0.5348337570244734   T   T   T
  0.4584384141835275  0.4573320053262224  0.6201103633156498   T   T   T
  0.4003666048294500  0.3886229017010328  0.6376423254382801   T   T   T
  0.3936179022299175  0.3289800594862367  0.4667998400604642   T   T   T
  0.4772908485165103  0.2957749330745195  0.4515196321673504   T   T   T
  0.3187628364188191  0.3459072876833120  0.5576303236273510   T   T   T
  0.5944373203322939  0.2729424473627453  0.4906140662961621   T   T   T
  0.4081781508691802  0.2862999698703124  0.5794372697249751   T   T   T
  0.4958144215210878  0.2629637987993682  0.5666969636106022   T   T   T
  0.5774112057678469  0.3531625844457559  0.5868487980275934   T   T   T
  0.5328499108551675  0.5385608959722206  0.4646967329356718   T   T   T
  0.5285118743390391  0.6194052079336755  0.5406594505187921   T   T   T
  0.6132566528968285  0.5618962671725232  0.5338560815020718   T   T   T
  0.5435789029853864  0.5434807540484524  0.6197763075853747   T   T   T
  0.6045571889705170  0.6657187255289262  0.4612401623352635   T   T   T
  0.5201688046521643  0.6984311047759690  0.4503319970789689   T   T   T
  0.6989243489362402  0.4793309138811000  0.5564390632504588   T   T   T
  0.7215158717401566  0.5851926010115769  0.5112696904070045   T   T   T
  0.5875797193083885  0.7139864282064601  0.5692910470129007   T   T   T
  0.6796756959872280  0.6551209597260238  0.5533788509299079   T   T   T
  0.5968979445815433  0.6167989769349967  0.6331232046740519   T   T   T
  0.4132916462739264  0.7171489866724277  0.4958990105904082   T   T   T
  0.4244412621424705  0.6328163886809158  0.5862451307583947   T   T   T
  0.4966606854917238  0.7243468331048813  0.5618023523396848   T   T   T
  0.5822811999999971  0.4337891999999997  0.3542488000000006   T   T   T
  0.6358155145627974  0.2774790147591684  0.4629145986210546   T   T   T
  0.7432427340971252  0.4554301807804088  0.4306163508520420   T   T   T
  0.4243555497006969  0.5660568429885190  0.3548408304306955   T   T   T
  0.3074101910285393  0.5665812301062175  0.5649586984817022   T   T   T
  0.3713388049068717  0.7164437305247094  0.4676527013205917   T   T   T
  0.4295254407339835  0.4269059373724684  0.6504278187115130   T   T   T
  0.4292406732946268  0.3039547309305440  0.4396089918191017   T   T   T
  0.2807189287899541  0.3706872626174890  0.5355086989886328   T   T   T
  0.4494718299328838  0.2560089007283990  0.5839626451609307   T   T   T
  0.5703066100723440  0.5772478452414145  0.6481734413038323   T   T   T
  0.5671305460076059  0.6888976148447640  0.4350746510207928   T   T   T
  0.6887473309146724  0.4319737796453509  0.5704735125395256   T   T   T
  0.2640336451448576  0.5403013713884171  0.4234027759754502   T   T   T
  0.7197430713790300  0.6287575626649479  0.5367456394139819   T   T   T
  0.5433141315305066  0.7376220728124856  0.5763167245671316   T   T   T
  0.5726453065943701  0.4371618253684218  0.3109766532639263   T   T   T
  0.4333490908966260  0.5630522894209871  0.3114344206873777   T   T   T
  0.2916631014629649  0.5780730933961383  0.6050077138392006   T   T   T
  0.4153353872768898  0.2878371031701058  0.4004416560235563   T   T   T
  0.2402948552212404  0.3538783679243946  0.5426622013813782   T   T   T
  0.4411533702086980  0.2185698890691752  0.6065611482293612   T   T   T
  0.5778635671810054  0.7021274235804238  0.3939266134789268   T   T   T
  0.6321589213930604  0.6122076137534916  0.4284376542966146   T   T   T
  0.6082153708147050  0.5582408000247767  0.4091160267982099   T   T   T
  0.3720571568918472  0.3833133432309874  0.4312745825483103   T   T   T
  0.4061563235231300  0.4333504580226291  0.4186326533180629   T   T   T
  0.6134154601425058  0.3646010400252436  0.5741391056039403   T   T   T
  0.5591608615495475  0.3867422900085929  0.5949250926139232   T   T   T
  0.3867001475412156  0.6278129814942986  0.5744591566783404   T   T   T
  0.4382276846981672  0.5960233638845384  0.5869925399010889   T   T   T
  0.6566028495832235  0.2401491514255799  0.4505519731001288   T   T   T
  0.7824601312004602  0.4532967346960142  0.4099503285629921   T   T   T
  0.3534815451693082  0.7561729110196209  0.4593473892377973   T   T   T
  0.4326039508678047  0.4382076128084228  0.6933175259822739   T   T   T
  0.5682163052031686  0.5684631297333507  0.6916767775669342   T   T   T
  0.7000122310444084  0.4208682805652262  0.6121192632659618   T   T   T
  0.2262843142568037  0.5426729277446288  0.4002088688601589   T   T   T
  0.7591086481409307  0.6471034213956216  0.5457061159603854   T   T   T
  0.5457204275419504  0.7760312492670763  0.5983867546859707   T   T   T
 
  0.00000000E+00  0.00000000E+00  0.00000000E+00
  0.00000000E+00  0.00000000E+00  0.00000000E+00
  0.00000000E+00  0.00000000E+00  0.00000000E+00
  0.00000000E+00  0.00000000E+00  0.00000000E+00
  0.00000000E+00  0.00000000E+00  0.00000000E+00
  0.00000000E+00  0.00000000E+00  0.00000000E+00
  0.00000000E+00  0.00000000E+00  0.00000000E+00
  0.00000000E+00  0.00000000E+00  0.00000000E+00
  0.00000000E+00  0.00000000E+00  0.00000000E+00
  0.00000000E+00  0.00000000E+00  0.00000000E+00
  0.00000000E+00  0.00000000E+00  0.00000000E+00
  0.00000000E+00  0.00000000E+00  0.00000000E+00
  0.00000000E+00  0.00000000E+00  0.00000000E+00
  0.00000000E+00  0.00000000E+00  0.00000000E+00
  0.00000000E+00  0.00000000E+00  0.00000000E+00
  0.00000000E+00  0.00000000E+00  0.00000000E+00
  0.00000000E+00  0.00000000E+00  0.00000000E+00
  0.00000000E+00  0.00000000E+00  0.00000000E+00
  0.00000000E+00  0.00000000E+00  0.00000000E+00
  0.00000000E+00  0.00000000E+00  0.00000000E+00
  0.00000000E+00  0.00000000E+00  0.00000000E+00
  0.00000000E+00  0.00000000E+00  0.00000000E+00
  0.00000000E+00  0.00000000E+00  0.00000000E+00
  0.00000000E+00  0.00000000E+00  0.00000000E+00
  0.00000000E+00  0.00000000E+00  0.00000000E+00
  0.00000000E+00  0.00000000E+00  0.00000000E+00
  0.00000000E+00  0.00000000E+00  0.00000000E+00
  0.00000000E+00  0.00000000E+00  0.00000000E+00
  0.00000000E+00  0.00000000E+00  0.00000000E+00
  0.00000000E+00  0.00000000E+00  0.00000000E+00
  0.00000000E+00  0.00000000E+00  0.00000000E+00
  0.00000000E+00  0.00000000E+00  0.00000000E+00
  0.00000000E+00  0.00000000E+00  0.00000000E+00
  0.00000000E+00  0.00000000E+00  0.00000000E+00
  0.00000000E+00  0.00000000E+00  0.00000000E+00
  0.00000000E+00  0.00000000E+00  0.00000000E+00
  0.00000000E+00  0.00000000E+00  0.00000000E+00
  0.00000000E+00  0.00000000E+00  0.00000000E+00
  0.00000000E+00  0.00000000E+00  0.00000000E+00
  0.00000000E+00  0.00000000E+00  0.00000000E+00
  0.00000000E+00  0.00000000E+00  0.00000000E+00
  0.00000000E+00  0.00000000E+00  0.00000000E+00
  0.00000000E+00  0.00000000E+00  0.00000000E+00
  0.00000000E+00  0.00000000E+00  0.00000000E+00
  0.00000000E+00  0.00000000E+00  0.00000000E+00
  0.00000000E+00  0.00000000E+00  0.00000000E+00
  0.00000000E+00  0.00000000E+00  0.00000000E+00
  0.00000000E+00  0.00000000E+00  0.00000000E+00
  0.00000000E+00  0.00000000E+00  0.00000000E+00
  0.00000000E+00  0.00000000E+00  0.00000000E+00
  0.00000000E+00  0.00000000E+00  0.00000000E+00
  0.00000000E+00  0.00000000E+00  0.00000000E+00
  0.00000000E+00  0.00000000E+00  0.00000000E+00
  0.00000000E+00  0.00000000E+00  0.00000000E+00
  0.00000000E+00  0.00000000E+00  0.00000000E+00
  0.00000000E+00  0.00000000E+00  0.00000000E+00
  0.00000000E+00  0.00000000E+00  0.00000000E+00
  0.00000000E+00  0.00000000E+00  0.00000000E+00
  0.00000000E+00  0.00000000E+00  0.00000000E+00
  0.00000000E+00  0.00000000E+00  0.00000000E+00
  0.00000000E+00  0.00000000E+00  0.00000000E+00
  0.00000000E+00  0.00000000E+00  0.00000000E+00
  0.00000000E+00  0.00000000E+00  0.00000000E+00
  0.00000000E+00  0.00000000E+00  0.00000000E+00
  0.00000000E+00  0.00000000E+00  0.00000000E+00
  0.00000000E+00  0.00000000E+00  0.00000000E+00
  0.00000000E+00  0.00000000E+00  0.00000000E+00
  0.00000000E+00  0.00000000E+00  0.00000000E+00
  0.00000000E+00  0.00000000E+00  0.00000000E+00
  0.00000000E+00  0.00000000E+00  0.00000000E+00
  0.00000000E+00  0.00000000E+00  0.00000000E+00
  0.00000000E+00  0.00000000E+00  0.00000000E+00
  0.00000000E+00  0.00000000E+00  0.00000000E+00
  0.00000000E+00  0.00000000E+00  0.00000000E+00
  0.00000000E+00  0.00000000E+00  0.00000000E+00
  0.00000000E+00  0.00000000E+00  0.00000000E+00
  0.00000000E+00  0.00000000E+00  0.00000000E+00
  0.00000000E+00  0.00000000E+00  0.00000000E+00
  0.00000000E+00  0.00000000E+00  0.00000000E+00
  0.00000000E+00  0.00000000E+00  0.00000000E+00
  0.00000000E+00  0.00000000E+00  0.00000000E+00
  0.00000000E+00  0.00000000E+00  0.00000000E+00
  0.00000000E+00  0.00000000E+00  0.00000000E+00
  0.00000000E+00  0.00000000E+00  0.00000000E+00
  0.00000000E+00  0.00000000E+00  0.00000000E+00
  0.00000000E+00  0.00000000E+00  0.00000000E+00
  0.00000000E+00  0.00000000E+00  0.00000000E+00
  0.00000000E+00  0.00000000E+00  0.00000000E+00
  0.00000000E+00  0.00000000E+00  0.00000000E+00
  0.00000000E+00  0.00000000E+00  0.00000000E+00
  0.00000000E+00  0.00000000E+00  0.00000000E+00
  0.00000000E+00  0.00000000E+00  0.00000000E+00
  0.00000000E+00  0.00000000E+00  0.00000000E+00
  0.00000000E+00  0.00000000E+00  0.00000000E+00
  0.00000000E+00  0.00000000E+00  0.00000000E+00
  0.00000000E+00  0.00000000E+00  0.00000000E+00
  0.00000000E+00  0.00000000E+00  0.00000000E+00
  0.00000000E+00  0.00000000E+00  0.00000000E+00
  0.00000000E+00  0.00000000E+00  0.00000000E+00
  0.00000000E+00  0.00000000E+00  0.00000000E+00
