POSCAR                                  
   1.00000000000000     
    25.0000000000000000    0.0000000000000000    0.0000000000000000
     0.0000000000000000   25.0000000000000000    0.0000000000000000
     0.0000000000000000    0.0000000000000000   25.0000000000000000
   Mn   O    C    H 
    12    48    16    24
Direct
  0.5479394158545380  0.4605199776696917  0.4622133989448398   T   T   T
  0.4546831909831123  0.5351997880305029  0.4606493151317504   T   T   T
  0.4643371595238560  0.4503664690161417  0.5413382124115045   T   T   T
  0.5387002920474449  0.5439701115596970  0.5397806441581089   T   T   T
  0.6419750643511247  0.3969160468685031  0.4583193235994500   T   T   T
  0.6682103665363612  0.5277043047853107  0.4899997425988655   T   T   T
  0.3625391467542685  0.5999867463682870  0.4512467527259706   T   T   T
  0.3276923614225683  0.4693127316823455  0.4914992956954459   T   T   T
  0.4008987836140570  0.3574054781781548  0.5489004227558569   T   T   T
  0.5306328425896312  0.3304596026167587  0.5114861640904361   T   T   T
  0.6024237383154295  0.6380936337302421  0.5444958043379879   T   T   T
  0.4717365953610647  0.6640581305376857  0.5113391548344214   T   T   T
  0.5425021475238269  0.4674356209185479  0.5384924031009531   T   T   T
  0.6235342003096360  0.4710947471389046  0.4626799139158903   T   T   T
  0.5657596548410395  0.3863170023282898  0.4701236213990863   T   T   T
  0.5482157263160367  0.4557350096358029  0.3834711774599964   T   T   T
  0.6213871945048984  0.4019382178191184  0.3710917072576612   T   T   T
  0.6669444752993685  0.3952643563079845  0.5441298040753464   T   T   T
  0.6587270167668912  0.3194518436696879  0.4512857257474086   T   T   T
  0.7182428670080874  0.4102875756954336  0.4367413655646167   T   T   T
  0.7302283957818463  0.5008352755440560  0.4456614393690019   T   T   T
  0.6425319389198245  0.5737636762884895  0.4155821367590771   T   T   T
  0.4620545639544564  0.5287884651238139  0.5382771198533918   T   T   T
  0.3815521885167103  0.5270107228408138  0.4585374410754873   T   T   T
  0.4396537458897882  0.6098678338808795  0.4668607434800491   T   T   T
  0.4594359180613812  0.5385347320827915  0.3824317656270547   T   T   T
  0.3901806895921250  0.5959284162548328  0.3646899948231658   T   T   T
  0.3334104448915624  0.6058269906115114  0.5365135760464804   T   T   T
  0.3012152157070367  0.5224294654984876  0.5549809081676665   T   T   T
  0.3480154069234568  0.6787866812288390  0.4435260095775198   T   T   T
  0.2760124951695307  0.4054097134006824  0.5177935347072988   T   T   T
  0.2884837557432394  0.5891841083608732  0.4244965664085641   T   T   T
  0.2643080236423879  0.5024253508453506  0.4409837604432059   T   T   T
  0.3524753595597483  0.4206544560921462  0.4185499674660332   T   T   T
  0.4709835796797758  0.4577461003182781  0.4639652363634534   T   T   T
  0.4765153311999080  0.3757562132873821  0.5412683389215236   T   T   T
  0.3926671012646254  0.4323543619191875  0.5364279838583689   T   T   T
  0.4637049618890356  0.4520804796740669  0.6198140785691245   T   T   T
  0.4121951644058219  0.3781887257715976  0.6369147312835920   T   T   T
  0.3974116798940612  0.3325621269654859  0.4623232933842039   T   T   T
  0.4817541910507580  0.3024572760821219  0.4452779685295986   T   T   T
  0.3243138437341620  0.3406041009595800  0.5605801671173326   T   T   T
  0.5866665852021212  0.2768720761839218  0.4887964465103486   T   T   T
  0.4147928489188342  0.2805381870846996  0.5695982889620426   T   T   T
  0.5044512646006662  0.2676687895617851  0.5549956649462640   T   T   T
  0.5791356267473101  0.3514284648823443  0.5869450644980808   T   T   T
  0.5336647286804160  0.5368398959736036  0.4633417310307656   T   T   T
  0.5287017741033766  0.6191374801083079  0.5381436651045418   T   T   T
  0.6134565077595016  0.5616203597307897  0.5330308903038165   T   T   T
  0.5426186754648095  0.5442116796043716  0.6184736359706995   T   T   T
  0.6066100396530737  0.6643799650947244  0.4592986310321892   T   T   T
  0.5225972136769723  0.6976310598117484  0.4474024447901243   T   T   T
  0.6992531035144717  0.4795760333162754  0.5563892378228713   T   T   T
  0.7215290342018019  0.5850658581352369  0.5098421246159612   T   T   T
  0.5883134474541070  0.7139497223661989  0.5666688448563998   T   T   T
  0.6800027634143931  0.6546961545193871  0.5527160304331695   T   T   T
  0.5963234797519719  0.6172788326443265  0.6315868300846007   T   T   T
  0.4157003256301883  0.7179548520981289  0.4914141662423943   T   T   T
  0.4246125849461577  0.6350914091069437  0.5832296699067016   T   T   T
  0.4975806755411308  0.7248964642205563  0.5582331715131038   T   T   T
  0.5820840074319440  0.4286150582062154  0.3555499695916737   T   T   T
  0.6312210495252142  0.2791136605636081  0.4651588547148601   T   T   T
  0.7431398236009666  0.4540929833250638  0.4312328407337182   T   T   T
  0.4284667605329080  0.5667149855757082  0.3519942216846999   T   T   T
  0.3098061551741221  0.5706990391827065  0.5655674189972604   T   T   T
  0.3736119294011012  0.7176821798382108  0.4630560283138077   T   T   T
  0.4379990706537886  0.4187581073950816  0.6499689267955697   T   T   T
  0.4338485966972950  0.3121836041240033  0.4329555651475227   T   T   T
  0.2812788962383476  0.3640009070307734  0.5453126040497123   T   T   T
  0.4583994153318048  0.2550758645258830  0.5720389850385152   T   T   T
  0.5692979448318162  0.5780939322776271  0.6467861227559861   T   T   T
  0.5694845153596392  0.6875948234955001  0.4325532153891806   T   T   T
  0.6885152789879232  0.4328267147428427  0.5714455128098019   T   T   T
  0.2575722015829840  0.5481765545907149  0.4221464707110858   T   T   T
  0.7199292462574833  0.6284210535247472  0.5358187899370991   T   T   T
  0.5440998543842247  0.7380768500647763  0.5729224450258186   T   T   T
  0.5736747627136795  0.4304595947365364  0.3119652920677547   T   T   T
  0.4391673436470714  0.5628635871843991  0.3090053715586797   T   T   T
  0.2955398167910012  0.5853289209179584  0.6051848721525991   T   T   T
  0.4216541388329422  0.3017807182255886  0.3913902806479539   T   T   T
  0.2442774070551515  0.3434169152228795  0.5589375763759789   T   T   T
  0.4562492987398371  0.2154589755432498  0.5919470407362059   T   T   T
  0.5807056600049794  0.7002028993241671  0.3913501950791797   T   T   T
  0.6333577011994854  0.6109162264667408  0.4271418553224246   T   T   T
  0.6075836023623427  0.5573846820686232  0.4090896629996398   T   T   T
  0.3656887526091018  0.3853146911629621  0.4314724338346111   T   T   T
  0.3847432030969425  0.4396924864357973  0.4076007167707401   T   T   T
  0.6147371027580455  0.3653734856335639  0.5753069835751059   T   T   T
  0.5596135757288044  0.3831637061727160  0.5986447774957077   T   T   T
  0.3871276968758929  0.6299045350571615  0.5702169632913043   T   T   T
  0.4379611945803779  0.5983141275507783  0.5860670729599867   T   T   T
  0.6493784516551663  0.2398887131275574  0.4552589994885181   T   T   T
  0.7824054535823113  0.4509964177285739  0.4108248325808007   T   T   T
  0.3567304369182694  0.7578198677172111  0.4545829422684300   T   T   T
  0.4407956489164222  0.4294719598040836  0.6930383894489947   T   T   T
  0.5667140058097607  0.5697609094530359  0.6903479709740498   T   T   T
  0.6989353103546662  0.4224222369052172  0.6134717224409980   T   T   T
  0.2197686404318750  0.5561540228271820  0.4000349992188519   T   T   T
  0.7594121163159702  0.6464489459153451  0.5448992100275046   T   T   T
  0.5467772974632336  0.7768069297396079  0.5944050545489219   T   T   T
 
  0.00000000E+00  0.00000000E+00  0.00000000E+00
  0.00000000E+00  0.00000000E+00  0.00000000E+00
  0.00000000E+00  0.00000000E+00  0.00000000E+00
  0.00000000E+00  0.00000000E+00  0.00000000E+00
  0.00000000E+00  0.00000000E+00  0.00000000E+00
  0.00000000E+00  0.00000000E+00  0.00000000E+00
  0.00000000E+00  0.00000000E+00  0.00000000E+00
  0.00000000E+00  0.00000000E+00  0.00000000E+00
  0.00000000E+00  0.00000000E+00  0.00000000E+00
  0.00000000E+00  0.00000000E+00  0.00000000E+00
  0.00000000E+00  0.00000000E+00  0.00000000E+00
  0.00000000E+00  0.00000000E+00  0.00000000E+00
  0.00000000E+00  0.00000000E+00  0.00000000E+00
  0.00000000E+00  0.00000000E+00  0.00000000E+00
  0.00000000E+00  0.00000000E+00  0.00000000E+00
  0.00000000E+00  0.00000000E+00  0.00000000E+00
  0.00000000E+00  0.00000000E+00  0.00000000E+00
  0.00000000E+00  0.00000000E+00  0.00000000E+00
  0.00000000E+00  0.00000000E+00  0.00000000E+00
  0.00000000E+00  0.00000000E+00  0.00000000E+00
  0.00000000E+00  0.00000000E+00  0.00000000E+00
  0.00000000E+00  0.00000000E+00  0.00000000E+00
  0.00000000E+00  0.00000000E+00  0.00000000E+00
  0.00000000E+00  0.00000000E+00  0.00000000E+00
  0.00000000E+00  0.00000000E+00  0.00000000E+00
  0.00000000E+00  0.00000000E+00  0.00000000E+00
  0.00000000E+00  0.00000000E+00  0.00000000E+00
  0.00000000E+00  0.00000000E+00  0.00000000E+00
  0.00000000E+00  0.00000000E+00  0.00000000E+00
  0.00000000E+00  0.00000000E+00  0.00000000E+00
  0.00000000E+00  0.00000000E+00  0.00000000E+00
  0.00000000E+00  0.00000000E+00  0.00000000E+00
  0.00000000E+00  0.00000000E+00  0.00000000E+00
  0.00000000E+00  0.00000000E+00  0.00000000E+00
  0.00000000E+00  0.00000000E+00  0.00000000E+00
  0.00000000E+00  0.00000000E+00  0.00000000E+00
  0.00000000E+00  0.00000000E+00  0.00000000E+00
  0.00000000E+00  0.00000000E+00  0.00000000E+00
  0.00000000E+00  0.00000000E+00  0.00000000E+00
  0.00000000E+00  0.00000000E+00  0.00000000E+00
  0.00000000E+00  0.00000000E+00  0.00000000E+00
  0.00000000E+00  0.00000000E+00  0.00000000E+00
  0.00000000E+00  0.00000000E+00  0.00000000E+00
  0.00000000E+00  0.00000000E+00  0.00000000E+00
  0.00000000E+00  0.00000000E+00  0.00000000E+00
  0.00000000E+00  0.00000000E+00  0.00000000E+00
  0.00000000E+00  0.00000000E+00  0.00000000E+00
  0.00000000E+00  0.00000000E+00  0.00000000E+00
  0.00000000E+00  0.00000000E+00  0.00000000E+00
  0.00000000E+00  0.00000000E+00  0.00000000E+00
  0.00000000E+00  0.00000000E+00  0.00000000E+00
  0.00000000E+00  0.00000000E+00  0.00000000E+00
  0.00000000E+00  0.00000000E+00  0.00000000E+00
  0.00000000E+00  0.00000000E+00  0.00000000E+00
  0.00000000E+00  0.00000000E+00  0.00000000E+00
  0.00000000E+00  0.00000000E+00  0.00000000E+00
  0.00000000E+00  0.00000000E+00  0.00000000E+00
  0.00000000E+00  0.00000000E+00  0.00000000E+00
  0.00000000E+00  0.00000000E+00  0.00000000E+00
  0.00000000E+00  0.00000000E+00  0.00000000E+00
  0.00000000E+00  0.00000000E+00  0.00000000E+00
  0.00000000E+00  0.00000000E+00  0.00000000E+00
  0.00000000E+00  0.00000000E+00  0.00000000E+00
  0.00000000E+00  0.00000000E+00  0.00000000E+00
  0.00000000E+00  0.00000000E+00  0.00000000E+00
  0.00000000E+00  0.00000000E+00  0.00000000E+00
  0.00000000E+00  0.00000000E+00  0.00000000E+00
  0.00000000E+00  0.00000000E+00  0.00000000E+00
  0.00000000E+00  0.00000000E+00  0.00000000E+00
  0.00000000E+00  0.00000000E+00  0.00000000E+00
  0.00000000E+00  0.00000000E+00  0.00000000E+00
  0.00000000E+00  0.00000000E+00  0.00000000E+00
  0.00000000E+00  0.00000000E+00  0.00000000E+00
  0.00000000E+00  0.00000000E+00  0.00000000E+00
  0.00000000E+00  0.00000000E+00  0.00000000E+00
  0.00000000E+00  0.00000000E+00  0.00000000E+00
  0.00000000E+00  0.00000000E+00  0.00000000E+00
  0.00000000E+00  0.00000000E+00  0.00000000E+00
  0.00000000E+00  0.00000000E+00  0.00000000E+00
  0.00000000E+00  0.00000000E+00  0.00000000E+00
  0.00000000E+00  0.00000000E+00  0.00000000E+00
  0.00000000E+00  0.00000000E+00  0.00000000E+00
  0.00000000E+00  0.00000000E+00  0.00000000E+00
  0.00000000E+00  0.00000000E+00  0.00000000E+00
  0.00000000E+00  0.00000000E+00  0.00000000E+00
  0.00000000E+00  0.00000000E+00  0.00000000E+00
  0.00000000E+00  0.00000000E+00  0.00000000E+00
  0.00000000E+00  0.00000000E+00  0.00000000E+00
  0.00000000E+00  0.00000000E+00  0.00000000E+00
  0.00000000E+00  0.00000000E+00  0.00000000E+00
  0.00000000E+00  0.00000000E+00  0.00000000E+00
  0.00000000E+00  0.00000000E+00  0.00000000E+00
  0.00000000E+00  0.00000000E+00  0.00000000E+00
  0.00000000E+00  0.00000000E+00  0.00000000E+00
  0.00000000E+00  0.00000000E+00  0.00000000E+00
  0.00000000E+00  0.00000000E+00  0.00000000E+00
  0.00000000E+00  0.00000000E+00  0.00000000E+00
  0.00000000E+00  0.00000000E+00  0.00000000E+00
  0.00000000E+00  0.00000000E+00  0.00000000E+00
  0.00000000E+00  0.00000000E+00  0.00000000E+00
